10
754 466 895  118
823 484 584  663
461 988 622  459
979 923 671  484
412 931 703  597
983 929 915  994
453 530 565  345
837 682 577  128
877 465 400  440
643 874 523  232
10
401 312 527  161 41
299 681 224  96 181
3 402 569  162 269
690 557 750  32 73
241 351 606  60 7
614 371 718  160 148
230 144 310  275 237
684 771 317  173 174
435 795 338  92 270
640 483 783  117 123
